p cnf 166 660
c p weight 70 0 0
c p weight -70 1 0
c p weight 71 1.0 0
c p weight -71 1 0
66 -65 63 0
66 -65 64 0
-66 65 63 0
-66 65 64 0
66 65 -63 -64 0
-66 -65 -63 -64 0
67 63 -64 0
67 -63 64 0
-67 63 64 0
-67 -63 -64 0
68 69 -66 0
68 -66 67 0
-68 69 66 0
-68 66 67 0
68 -66 -63 0
-68 66 -63 0
68 -69 66 63 -67 0
-68 -69 -66 63 -67 0
69 -63 67 0
-69 63 67 0
-70 67 0
69 -70 -63 0
-69 -70 63 0
69 70 63 -67 0
-69 70 -63 -67 0
-71 67 0
69 -71 63 0
-69 -71 -63 0
69 71 -63 -67 0
-69 71 63 -67 0
72 -68 69 0
72 -68 67 0
-72 68 69 0
-72 68 67 0
72 68 -69 -67 0
-72 -68 -69 -67 0
73 69 -67 0
73 -69 67 0
-73 69 67 0
-73 -69 -67 0
74 -72 69 0
74 -72 62 0
-74 72 69 0
-74 72 62 0
74 -72 61 -73 0
74 -72 -61 73 0
-74 72 61 -73 0
-74 72 -61 73 0
74 72 -69 61 73 -62 0
74 72 -69 -61 -73 -62 0
-74 -72 -69 61 73 -62 0
-74 -72 -69 -61 -73 -62 0
76 69 -61 0
76 -69 61 0
-76 69 61 0
-76 -69 -61 0
75 73 -62 0
75 -73 62 0
-75 73 62 0
-75 -73 -62 0
77 -74 76 0
77 -74 60 0
-77 74 76 0
-77 74 60 0
77 -74 59 -62 0
77 -74 -59 62 0
-77 74 59 -62 0
-77 74 -59 62 0
77 74 -76 59 62 -60 0
77 74 -76 -59 -62 -60 0
-77 -74 -76 59 62 -60 0
-77 -74 -76 -59 -62 -60 0
79 76 -59 0
79 -76 59 0
-79 76 59 0
-79 -76 -59 0
78 62 -60 0
78 -62 60 0
-78 62 60 0
-78 -62 -60 0
80 -77 79 0
80 -77 58 0
-80 77 79 0
-80 77 58 0
80 -77 57 -60 0
80 -77 -57 60 0
-80 77 57 -60 0
-80 77 -57 60 0
80 77 -79 57 60 -58 0
80 77 -79 -57 -60 -58 0
-80 -77 -79 57 60 -58 0
-80 -77 -79 -57 -60 -58 0
82 79 -57 0
82 -79 57 0
-82 79 57 0
-82 -79 -57 0
81 60 -58 0
81 -60 58 0
-81 60 58 0
-81 -60 -58 0
83 -80 82 0
83 -80 56 0
-83 80 82 0
-83 80 56 0
83 -80 55 -58 0
83 -80 -55 58 0
-83 80 55 -58 0
-83 80 -55 58 0
83 80 -82 55 58 -56 0
83 80 -82 -55 -58 -56 0
-83 -80 -82 55 58 -56 0
-83 -80 -82 -55 -58 -56 0
85 82 -55 0
85 -82 55 0
-85 82 55 0
-85 -82 -55 0
84 58 -56 0
84 -58 56 0
-84 58 56 0
-84 -58 -56 0
86 -83 85 0
86 -83 54 0
-86 83 85 0
-86 83 54 0
86 -83 53 -56 0
86 -83 -53 56 0
-86 83 53 -56 0
-86 83 -53 56 0
86 83 -85 53 56 -54 0
86 83 -85 -53 -56 -54 0
-86 -83 -85 53 56 -54 0
-86 -83 -85 -53 -56 -54 0
88 85 -53 0
88 -85 53 0
-88 85 53 0
-88 -85 -53 0
87 56 -54 0
87 -56 54 0
-87 56 54 0
-87 -56 -54 0
89 -86 88 0
89 -86 52 0
-89 86 88 0
-89 86 52 0
89 -86 51 -54 0
89 -86 -51 54 0
-89 86 51 -54 0
-89 86 -51 54 0
89 86 -88 51 54 -52 0
89 86 -88 -51 -54 -52 0
-89 -86 -88 51 54 -52 0
-89 -86 -88 -51 -54 -52 0
91 88 -51 0
91 -88 51 0
-91 88 51 0
-91 -88 -51 0
90 54 -52 0
90 -54 52 0
-90 54 52 0
-90 -54 -52 0
92 -89 91 0
92 -89 50 0
-92 89 91 0
-92 89 50 0
92 -89 49 -52 0
92 -89 -49 52 0
-92 89 49 -52 0
-92 89 -49 52 0
92 89 -91 49 52 -50 0
92 89 -91 -49 -52 -50 0
-92 -89 -91 49 52 -50 0
-92 -89 -91 -49 -52 -50 0
94 91 -49 0
94 -91 49 0
-94 91 49 0
-94 -91 -49 0
93 52 -50 0
93 -52 50 0
-93 52 50 0
-93 -52 -50 0
95 -92 94 0
95 -92 48 0
-95 92 94 0
-95 92 48 0
95 -92 47 -50 0
95 -92 -47 50 0
-95 92 47 -50 0
-95 92 -47 50 0
95 92 -94 47 50 -48 0
95 92 -94 -47 -50 -48 0
-95 -92 -94 47 50 -48 0
-95 -92 -94 -47 -50 -48 0
97 94 -47 0
97 -94 47 0
-97 94 47 0
-97 -94 -47 0
96 50 -48 0
96 -50 48 0
-96 50 48 0
-96 -50 -48 0
98 -95 97 0
98 -95 46 0
-98 95 97 0
-98 95 46 0
98 -95 45 -48 0
98 -95 -45 48 0
-98 95 45 -48 0
-98 95 -45 48 0
98 95 -97 45 48 -46 0
98 95 -97 -45 -48 -46 0
-98 -95 -97 45 48 -46 0
-98 -95 -97 -45 -48 -46 0
100 97 -45 0
100 -97 45 0
-100 97 45 0
-100 -97 -45 0
99 48 -46 0
99 -48 46 0
-99 48 46 0
-99 -48 -46 0
101 -98 100 0
101 -98 44 0
-101 98 100 0
-101 98 44 0
101 -98 43 -46 0
101 -98 -43 46 0
-101 98 43 -46 0
-101 98 -43 46 0
101 98 -100 43 46 -44 0
101 98 -100 -43 -46 -44 0
-101 -98 -100 43 46 -44 0
-101 -98 -100 -43 -46 -44 0
103 100 -43 0
103 -100 43 0
-103 100 43 0
-103 -100 -43 0
102 46 -44 0
102 -46 44 0
-102 46 44 0
-102 -46 -44 0
104 -101 103 0
104 -101 42 0
-104 101 103 0
-104 101 42 0
104 -101 41 -44 0
104 -101 -41 44 0
-104 101 41 -44 0
-104 101 -41 44 0
104 101 -103 41 44 -42 0
104 101 -103 -41 -44 -42 0
-104 -101 -103 41 44 -42 0
-104 -101 -103 -41 -44 -42 0
106 103 -41 0
106 -103 41 0
-106 103 41 0
-106 -103 -41 0
105 44 -42 0
105 -44 42 0
-105 44 42 0
-105 -44 -42 0
107 -104 106 0
107 -104 40 0
-107 104 106 0
-107 104 40 0
107 -104 39 -42 0
107 -104 -39 42 0
-107 104 39 -42 0
-107 104 -39 42 0
107 104 -106 39 42 -40 0
107 104 -106 -39 -42 -40 0
-107 -104 -106 39 42 -40 0
-107 -104 -106 -39 -42 -40 0
109 106 -39 0
109 -106 39 0
-109 106 39 0
-109 -106 -39 0
108 42 -40 0
108 -42 40 0
-108 42 40 0
-108 -42 -40 0
110 -107 109 0
110 -107 38 0
-110 107 109 0
-110 107 38 0
110 -107 37 -40 0
110 -107 -37 40 0
-110 107 37 -40 0
-110 107 -37 40 0
110 107 -109 37 40 -38 0
110 107 -109 -37 -40 -38 0
-110 -107 -109 37 40 -38 0
-110 -107 -109 -37 -40 -38 0
112 109 -37 0
112 -109 37 0
-112 109 37 0
-112 -109 -37 0
111 40 -38 0
111 -40 38 0
-111 40 38 0
-111 -40 -38 0
113 -110 112 0
113 -110 36 0
-113 110 112 0
-113 110 36 0
113 -110 35 -38 0
113 -110 -35 38 0
-113 110 35 -38 0
-113 110 -35 38 0
113 110 -112 35 38 -36 0
113 110 -112 -35 -38 -36 0
-113 -110 -112 35 38 -36 0
-113 -110 -112 -35 -38 -36 0
115 112 -35 0
115 -112 35 0
-115 112 35 0
-115 -112 -35 0
114 38 -36 0
114 -38 36 0
-114 38 36 0
-114 -38 -36 0
116 -113 115 0
116 -113 34 0
-116 113 115 0
-116 113 34 0
116 -113 33 -36 0
116 -113 -33 36 0
-116 113 33 -36 0
-116 113 -33 36 0
116 113 -115 33 36 -34 0
116 113 -115 -33 -36 -34 0
-116 -113 -115 33 36 -34 0
-116 -113 -115 -33 -36 -34 0
118 115 -33 0
118 -115 33 0
-118 115 33 0
-118 -115 -33 0
117 36 -34 0
117 -36 34 0
-117 36 34 0
-117 -36 -34 0
119 -116 118 0
119 -116 32 0
-119 116 118 0
-119 116 32 0
119 -116 31 -34 0
119 -116 -31 34 0
-119 116 31 -34 0
-119 116 -31 34 0
119 116 -118 31 34 -32 0
119 116 -118 -31 -34 -32 0
-119 -116 -118 31 34 -32 0
-119 -116 -118 -31 -34 -32 0
121 118 -31 0
121 -118 31 0
-121 118 31 0
-121 -118 -31 0
120 34 -32 0
120 -34 32 0
-120 34 32 0
-120 -34 -32 0
122 -119 121 0
122 -119 30 0
-122 119 121 0
-122 119 30 0
122 -119 29 -32 0
122 -119 -29 32 0
-122 119 29 -32 0
-122 119 -29 32 0
122 119 -121 29 32 -30 0
122 119 -121 -29 -32 -30 0
-122 -119 -121 29 32 -30 0
-122 -119 -121 -29 -32 -30 0
124 121 -29 0
124 -121 29 0
-124 121 29 0
-124 -121 -29 0
123 32 -30 0
123 -32 30 0
-123 32 30 0
-123 -32 -30 0
125 -122 124 0
125 -122 28 0
-125 122 124 0
-125 122 28 0
125 -122 27 -30 0
125 -122 -27 30 0
-125 122 27 -30 0
-125 122 -27 30 0
125 122 -124 27 30 -28 0
125 122 -124 -27 -30 -28 0
-125 -122 -124 27 30 -28 0
-125 -122 -124 -27 -30 -28 0
127 124 -27 0
127 -124 27 0
-127 124 27 0
-127 -124 -27 0
126 30 -28 0
126 -30 28 0
-126 30 28 0
-126 -30 -28 0
128 -125 127 0
128 -125 26 0
-128 125 127 0
-128 125 26 0
128 -125 25 -28 0
128 -125 -25 28 0
-128 125 25 -28 0
-128 125 -25 28 0
128 125 -127 25 28 -26 0
128 125 -127 -25 -28 -26 0
-128 -125 -127 25 28 -26 0
-128 -125 -127 -25 -28 -26 0
130 127 -25 0
130 -127 25 0
-130 127 25 0
-130 -127 -25 0
129 28 -26 0
129 -28 26 0
-129 28 26 0
-129 -28 -26 0
131 -128 130 0
131 -128 24 0
-131 128 130 0
-131 128 24 0
131 -128 23 -26 0
131 -128 -23 26 0
-131 128 23 -26 0
-131 128 -23 26 0
131 128 -130 23 26 -24 0
131 128 -130 -23 -26 -24 0
-131 -128 -130 23 26 -24 0
-131 -128 -130 -23 -26 -24 0
133 130 -23 0
133 -130 23 0
-133 130 23 0
-133 -130 -23 0
132 26 -24 0
132 -26 24 0
-132 26 24 0
-132 -26 -24 0
134 -131 133 0
134 -131 22 0
-134 131 133 0
-134 131 22 0
134 -131 21 -24 0
134 -131 -21 24 0
-134 131 21 -24 0
-134 131 -21 24 0
134 131 -133 21 24 -22 0
134 131 -133 -21 -24 -22 0
-134 -131 -133 21 24 -22 0
-134 -131 -133 -21 -24 -22 0
136 133 -21 0
136 -133 21 0
-136 133 21 0
-136 -133 -21 0
135 24 -22 0
135 -24 22 0
-135 24 22 0
-135 -24 -22 0
137 -134 136 0
137 -134 20 0
-137 134 136 0
-137 134 20 0
137 -134 19 -22 0
137 -134 -19 22 0
-137 134 19 -22 0
-137 134 -19 22 0
137 134 -136 19 22 -20 0
137 134 -136 -19 -22 -20 0
-137 -134 -136 19 22 -20 0
-137 -134 -136 -19 -22 -20 0
139 136 -19 0
139 -136 19 0
-139 136 19 0
-139 -136 -19 0
138 22 -20 0
138 -22 20 0
-138 22 20 0
-138 -22 -20 0
140 -137 139 0
140 -137 18 0
-140 137 139 0
-140 137 18 0
140 -137 17 -20 0
140 -137 -17 20 0
-140 137 17 -20 0
-140 137 -17 20 0
140 137 -139 17 20 -18 0
140 137 -139 -17 -20 -18 0
-140 -137 -139 17 20 -18 0
-140 -137 -139 -17 -20 -18 0
142 139 -17 0
142 -139 17 0
-142 139 17 0
-142 -139 -17 0
141 20 -18 0
141 -20 18 0
-141 20 18 0
-141 -20 -18 0
143 -140 142 0
143 -140 16 0
-143 140 142 0
-143 140 16 0
143 -140 15 -18 0
143 -140 -15 18 0
-143 140 15 -18 0
-143 140 -15 18 0
143 140 -142 15 18 -16 0
143 140 -142 -15 -18 -16 0
-143 -140 -142 15 18 -16 0
-143 -140 -142 -15 -18 -16 0
145 142 -15 0
145 -142 15 0
-145 142 15 0
-145 -142 -15 0
144 18 -16 0
144 -18 16 0
-144 18 16 0
-144 -18 -16 0
146 -143 145 0
146 -143 14 0
-146 143 145 0
-146 143 14 0
146 -143 13 -16 0
146 -143 -13 16 0
-146 143 13 -16 0
-146 143 -13 16 0
146 143 -145 13 16 -14 0
146 143 -145 -13 -16 -14 0
-146 -143 -145 13 16 -14 0
-146 -143 -145 -13 -16 -14 0
148 145 -13 0
148 -145 13 0
-148 145 13 0
-148 -145 -13 0
147 16 -14 0
147 -16 14 0
-147 16 14 0
-147 -16 -14 0
149 -146 148 0
149 -146 12 0
-149 146 148 0
-149 146 12 0
149 -146 11 -14 0
149 -146 -11 14 0
-149 146 11 -14 0
-149 146 -11 14 0
149 146 -148 11 14 -12 0
149 146 -148 -11 -14 -12 0
-149 -146 -148 11 14 -12 0
-149 -146 -148 -11 -14 -12 0
151 148 -11 0
151 -148 11 0
-151 148 11 0
-151 -148 -11 0
150 14 -12 0
150 -14 12 0
-150 14 12 0
-150 -14 -12 0
152 -149 151 0
152 -149 10 0
-152 149 151 0
-152 149 10 0
152 -149 9 -12 0
152 -149 -9 12 0
-152 149 9 -12 0
-152 149 -9 12 0
152 149 -151 9 12 -10 0
152 149 -151 -9 -12 -10 0
-152 -149 -151 9 12 -10 0
-152 -149 -151 -9 -12 -10 0
154 151 -9 0
154 -151 9 0
-154 151 9 0
-154 -151 -9 0
153 12 -10 0
153 -12 10 0
-153 12 10 0
-153 -12 -10 0
155 -152 154 0
155 -152 8 0
-155 152 154 0
-155 152 8 0
155 -152 7 -10 0
155 -152 -7 10 0
-155 152 7 -10 0
-155 152 -7 10 0
155 152 -154 7 10 -8 0
155 152 -154 -7 -10 -8 0
-155 -152 -154 7 10 -8 0
-155 -152 -154 -7 -10 -8 0
157 154 -7 0
157 -154 7 0
-157 154 7 0
-157 -154 -7 0
156 10 -8 0
156 -10 8 0
-156 10 8 0
-156 -10 -8 0
158 -155 157 0
158 -155 6 0
-158 155 157 0
-158 155 6 0
158 -155 5 -8 0
158 -155 -5 8 0
-158 155 5 -8 0
-158 155 -5 8 0
158 155 -157 5 8 -6 0
158 155 -157 -5 -8 -6 0
-158 -155 -157 5 8 -6 0
-158 -155 -157 -5 -8 -6 0
160 157 -5 0
160 -157 5 0
-160 157 5 0
-160 -157 -5 0
159 8 -6 0
159 -8 6 0
-159 8 6 0
-159 -8 -6 0
161 -158 160 0
161 -158 4 0
-161 158 160 0
-161 158 4 0
161 -158 3 -6 0
161 -158 -3 6 0
-161 158 3 -6 0
-161 158 -3 6 0
161 158 -160 3 6 -4 0
161 158 -160 -3 -6 -4 0
-161 -158 -160 3 6 -4 0
-161 -158 -160 -3 -6 -4 0
163 160 -3 0
163 -160 3 0
-163 160 3 0
-163 -160 -3 0
162 6 -4 0
162 -6 4 0
-162 6 4 0
-162 -6 -4 0
164 -161 163 0
164 -161 2 0
-164 161 163 0
-164 161 2 0
164 -161 1 -4 0
164 -161 -1 4 0
-164 161 1 -4 0
-164 161 -1 4 0
164 161 -163 1 4 -2 0
164 161 -163 -1 -4 -2 0
-164 -161 -163 1 4 -2 0
-164 -161 -163 -1 -4 -2 0
166 163 -1 0
166 -163 1 0
-166 163 1 0
-166 -163 -1 0
165 4 -2 0
165 -4 2 0
-165 4 2 0
-165 -4 -2 0
